p cnf 149 407
-30 1 -5 0
-30 -1 -11 0
30 1 5 0
30 -1 11 0
-31 -1 0
-31 -30 0
31 1 30 0
-32 -1 0
-32 -20 0
32 1 20 0
-33 -1 0
-33 -32 0
33 1 32 0
-34 -33 -31 0
-34 33 31 0
34 -33 31 0
34 33 -31 0
-35 1 -6 0
-35 -1 -12 0
35 1 6 0
35 -1 12 0
-36 35 -28 0
-36 -35 28 0
36 35 28 0
36 -35 -28 0
-37 1 -8 0
-37 -1 -13 0
37 1 8 0
37 -1 13 0
-38 -27 0
-38 -37 0
38 27 37 0
-39 37 -27 0
-39 -37 27 0
39 37 27 0
39 -37 -27 0
-40 1 -9 0
-40 -1 -14 0
40 1 9 0
40 -1 14 0
-41 -26 0
-41 -40 0
41 26 40 0
-42 40 -26 0
-42 -40 26 0
42 40 26 0
42 -40 -26 0
-43 1 -10 0
-43 -1 -15 0
43 1 10 0
43 -1 15 0
-44 -25 0
-44 -43 0
44 25 43 0
-45 1 -7 0
-45 -1 -16 0
45 1 7 0
45 -1 16 0
-46 -24 0
-46 -45 0
46 24 45 0
-47 45 -24 0
-47 -45 24 0
47 45 24 0
47 -45 -24 0
-48 1 -2 0
-48 -1 -17 0
48 1 2 0
48 -1 17 0
-49 -23 0
-49 -48 0
49 23 48 0
-50 -47 0
-50 49 0
50 47 -49 0
-51 48 -23 0
-51 -48 23 0
51 48 23 0
51 -48 -23 0
-52 1 -3 0
-52 -1 -18 0
52 1 3 0
52 -1 18 0
-53 -22 0
-53 -52 0
53 22 52 0
-54 -47 0
-54 -51 0
54 47 51 0
-55 53 0
-55 54 0
55 -53 -54 0
-56 52 -22 0
-56 -52 22 0
56 52 22 0
56 -52 -22 0
-57 1 -4 0
-57 -1 -19 0
57 1 4 0
57 -1 19 0
-58 -21 0
-58 -57 0
58 21 57 0
-59 -47 0
-59 -56 0
59 47 56 0
-60 58 0
-60 59 0
60 -58 -59 0
-61 -51 0
-61 60 0
61 51 -60 0
-62 57 -21 0
-62 -57 21 0
62 57 21 0
62 -57 -21 0
-63 31 0
-63 -33 0
63 -31 33 0
-64 -56 0
-64 -62 0
64 56 62 0
-65 -47 0
-65 64 0
65 47 -64 0
-66 63 0
-66 65 0
66 -63 -65 0
-67 -51 0
-67 66 0
67 51 -66 0
-68 -46 0
-68 -50 0
68 46 50 0
-69 -55 0
-69 68 0
69 55 -68 0
-70 -61 0
-70 69 0
70 61 -69 0
-71 -67 0
-71 70 0
71 67 -70 0
-72 43 -25 0
-72 -43 25 0
72 43 25 0
72 -43 -25 0
-73 -42 0
-73 -72 0
73 42 72 0
-74 -39 0
-74 73 0
74 39 -73 0
-75 -34 0
-75 -62 0
75 34 62 0
-76 -56 0
-76 75 0
76 56 -75 0
-77 -51 0
-77 76 0
77 51 -76 0
-78 -47 0
-78 77 0
78 47 -77 0
-79 -51 0
-79 53 0
79 51 -53 0
-80 -56 0
-80 58 0
80 56 -58 0
-81 -51 0
-81 80 0
81 51 -80 0
-82 63 0
-82 64 0
82 -63 -64 0
-83 -51 0
-83 82 0
83 51 -82 0
-84 -49 0
-84 -79 0
84 49 79 0
-85 -81 0
-85 84 0
85 81 -84 0
-86 -83 0
-86 85 0
86 83 -85 0
-87 -53 0
-87 -80 0
87 53 80 0
-88 -82 0
-88 87 0
88 82 -87 0
-89 -62 0
-89 63 0
89 62 -63 0
-90 -58 0
-90 -89 0
90 58 89 0
-91 -39 0
-91 41 0
91 39 -41 0
-92 -42 0
-92 44 0
92 42 -44 0
-93 -39 0
-93 92 0
93 39 -92 0
-94 -38 0
-94 -91 0
94 38 91 0
-95 -93 0
-95 94 0
95 93 -94 0
-96 -74 0
-96 95 0
96 74 -95 0
-97 -41 0
-97 -92 0
97 41 92 0
-98 -73 0
-98 97 0
98 73 -97 0
-99 25 0
-99 43 0
99 -25 -43 0
-100 -88 63 0
-100 88 -63 0
100 -88 -63 0
100 88 63 0
-101 -100 -90 0
-101 100 90 0
101 -100 90 0
101 100 -90 0
-102 -101 -86 0
-102 101 86 0
102 -101 86 0
102 101 -86 0
-103 -102 34 0
-103 102 -34 0
103 -102 -34 0
103 102 34 0
-104 -103 62 0
-104 103 -62 0
104 -103 -62 0
104 103 62 0
-105 -104 47 0
-105 104 -47 0
105 -104 -47 0
105 104 47 0
-106 -105 56 0
-106 105 -56 0
106 -105 -56 0
106 105 56 0
-107 -106 51 0
-107 106 -51 0
107 -106 -51 0
107 106 51 0
-108 -34 0
-108 -56 0
108 34 56 0
-109 -51 0
-109 108 0
109 51 -108 0
-110 -62 0
-110 109 0
110 62 -109 0
-111 86 0
-111 -110 0
111 -86 110 0
-112 -75 0
-112 90 0
112 75 -90 0
-113 -62 0
-113 108 0
113 62 -108 0
-114 88 0
-114 -113 0
114 -88 113 0
-115 -31 0
-115 33 0
115 31 -33 0
-116 115 114 0
-116 -115 -114 0
116 115 -114 0
116 -115 114 0
-117 -116 112 0
-117 116 -112 0
117 -116 -112 0
117 116 112 0
-118 -117 111 0
-118 117 -111 0
118 -117 -111 0
118 117 111 0
-119 -118 34 0
-119 118 -34 0
119 -118 -34 0
119 118 34 0
-120 -119 62 0
-120 119 -62 0
120 -119 -62 0
120 119 62 0
-121 -120 47 0
-121 120 -47 0
121 -120 -47 0
121 120 47 0
-122 -121 56 0
-122 121 -56 0
122 -121 -56 0
122 121 56 0
-123 -122 51 0
-123 122 -51 0
123 -122 -51 0
123 122 51 0
-124 -29 123 0
-124 29 -107 0
124 -29 -123 0
124 29 107 0
-125 -97 44 0
-125 97 -44 0
125 -97 -44 0
125 97 44 0
-126 -125 -95 0
-126 125 95 0
126 -125 95 0
126 125 -95 0
-127 -126 72 0
-127 126 -72 0
127 -126 -72 0
127 126 72 0
-128 -127 42 0
-128 127 -42 0
128 -127 -42 0
128 127 42 0
-129 -128 36 0
-129 128 -36 0
129 -128 -36 0
129 128 36 0
-130 -129 39 0
-130 129 -39 0
130 -129 -39 0
130 129 39 0
-131 71 0
-131 -130 0
131 -71 130 0
-132 -29 0
-132 131 0
132 29 -131 0
-133 99 98 0
-133 -99 -98 0
133 99 -98 0
133 -99 98 0
-134 -133 96 0
-134 133 -96 0
134 -133 -96 0
134 133 96 0
-135 -134 72 0
-135 134 -72 0
135 -134 -72 0
135 134 72 0
-136 -135 42 0
-136 135 -42 0
136 -135 -42 0
136 135 42 0
-137 -136 36 0
-137 136 -36 0
137 -136 -36 0
137 136 36 0
-138 -137 39 0
-138 137 -39 0
138 -137 -39 0
138 137 39 0
-139 -71 0
-139 -138 0
139 71 138 0
-140 -29 0
-140 139 0
140 29 -139 0
-141 71 0
-141 -78 0
141 -71 78 0
-142 -130 0
-142 141 0
142 130 -141 0
-143 29 0
-143 142 0
143 -29 -142 0
-144 -138 0
-144 -141 0
144 138 141 0
-145 29 0
-145 144 0
145 -29 -144 0
-146 -132 0
-146 -140 0
146 132 140 0
-147 -143 0
-147 146 0
147 143 -146 0
-148 -145 0
-148 147 0
148 145 -147 0
-149 -148 124 0
-149 148 -124 0
149 0
